circuits = [|
    7,12 |
    3,16 |
    3,16 |
    6,12 |
    6,9 |
    7,7 |
    2,12 |
    3,10 |
    3,10 |
    3,9 |
    2,7 |
    2,7 |
    1,7 |
    2,6 |
    3,5 |
    3,5 |
    2,5 |
    1,6 |
    2,5 |
    1,5 |
    1,5 |
    2,4 |
    2,3 |
    1,4 |
    1,3 |
|];
n = 25;
width = 15;